N = 9;
Capacity = 12;
Demand = [4, 10, 2, 5, 2, 2, 10, 5, 3];
Distance = [|
  0, 14, 19, 44, 46, 24, 39, 53, 29, 49
| 14, 0, 32, 33, 59, 11, 29, 66, 41, 41
| 19, 32, 0, 59, 27, 43, 55, 35, 18, 64
| 44, 33, 59, 0, 83, 28, 49, 87, 73, 60
| 46, 59, 27, 83, 0, 70, 82, 10, 31, 90
| 24, 11, 43, 28, 70, 0, 24, 77, 51, 36
| 39, 29, 55, 49, 82, 24, 0, 91, 56, 12
| 53, 66, 35, 87, 10, 77, 91, 0, 41, 99
| 29, 41, 18, 73, 31, 51, 56, 41, 0, 61
| 49, 41, 64, 60, 90, 36, 12, 99, 61, 0
|];
